42 1 
90 62 
54 11 
36 55 
58 79 
46 10 
47 5 
41 74 
80 93 
85 34 
80 68 
1 10 
13 2 
31 47 
74 80 
38 16 
81 28 
30 87 
91 19 
42 2 
98 40 
12 97 
98 5 
71 78 
50 56 
64 31 
77 17 
93 42 
20 24 
89 94 
5 27 
63 86 
7 45 
74 51 
64 68 
53 63 
61 17 
12 59 
23 84 
89 73 
92 53 
4 21 
22 97 
63 42 
74 52 
89 79 
31 4 
17 91 
49 43 
42 14 
